Route #1: 67 34 46 8 52 27 45 4
Route #2: 30 74 47 21 69 61 22 42 62 2
Route #3: 29 48 5 37 36 71 60 70 20 15 57 13 54
Route #4: 19 14 59 66 11 65 38
Route #5: 17 12 72 31 10 58 53 35 7 26
Route #6: 40 39 9 25 55 18 50 32 44
Route #7: 3 24 49 23 56 41 43 64 28
Route #8: 51 16 63 33 1 73 6 68 75
Cost 809